Version identifier: 22.1.0.0 | 2022-03-09 | 1a383f8ce
CPXPARAM_Threads                                 1
CPXPARAM_MIP_Strategy_VariableSelect             3
CPXPARAM_TimeLimit                               599.99998224599995
1 of 1 MIP starts provided solutions.
MIP start 'm1' defined initial solution with objective 1.0000.
Tried aggregator 1 time.
MIP Presolve eliminated 17 rows and 0 columns.
MIP Presolve modified 6 coefficients.
Reduced MIP has 5003 rows, 10000 columns, and 126084 nonzeros.
Reduced MIP has 10000 binaries, 0 generals, 0 SOSs, and 0 indicators.
Presolve time = 0.10 sec. (75.31 ticks)
Probing time = 0.01 sec. (4.83 ticks)
Tried aggregator 1 time.
Detecting symmetries...
MIP Presolve eliminated 2 rows and 0 columns.
Reduced MIP has 5001 rows, 10000 columns, and 126014 nonzeros.
Reduced MIP has 10000 binaries, 0 generals, 0 SOSs, and 0 indicators.
Presolve time = 0.09 sec. (72.41 ticks)
Probing time = 0.01 sec. (4.83 ticks)
Clique table members: 2990.
MIP emphasis: balance optimality and feasibility.
MIP search method: dynamic search.
Parallel mode: none, using 1 thread.
Root relaxation solution time = 7.33 sec. (6351.06 ticks)

        Nodes                                         Cuts/
   Node  Left     Objective  IInf  Best Integer    Best Bound    ItCnt     Gap

*     0+    0                            1.0000    10000.0000              --- 
      0     0      500.0000  2214        1.0000      500.0000    13647     --- 
*     0+    0                          487.0000      500.0000             2.67%
*     0+    0                          492.0000      500.0000             1.63%
*     0+    0                          493.0000      500.0000             1.42%
*     0+    0                          494.0000      500.0000             1.21%
*     0+    0                          495.0000      500.0000             1.01%
      0     0        cutoff            495.0000      500.0000    13647    1.01%
      0     2      500.0000   184      495.0000      500.0000    13647    1.01%
Elapsed time = 46.96 sec. (40583.02 ticks, tree = 0.01 MB, solutions = 6)
      1     3      500.0000   544      495.0000      500.0000    43222    1.01%
      2     4      500.0000   195      495.0000      500.0000    45445    1.01%
      3     5      500.0000   287      495.0000      500.0000    53258    1.01%
      4     6      500.0000   245      495.0000      500.0000    57598    1.01%
      5     7      500.0000   249      495.0000      500.0000    58074    1.01%
      6     8      500.0000  1025      495.0000      500.0000    85025    1.01%
      7     9      500.0000   692      495.0000      500.0000    99776    1.01%
      8    10      500.0000   264      495.0000      500.0000   109413    1.01%
      9    11      500.0000   265      495.0000      500.0000   109417    1.01%
     10    12      500.0000   937      495.0000      500.0000   129918    1.01%
Elapsed time = 104.14 sec. (90408.66 ticks, tree = 0.04 MB, solutions = 6)
     11    13      500.0000   574      495.0000      500.0000   140319    1.01%
     12    14      500.0000   619      495.0000      500.0000   150528    1.01%
     14    16      500.0000   521      495.0000      500.0000   150962    1.01%
     16    18      500.0000   533      495.0000      500.0000   152103    1.01%
     17    19      500.0000   713      495.0000      500.0000   157533    1.01%
     19    21      500.0000   607      495.0000      500.0000   161489    1.01%
     20    22      500.0000   623      495.0000      500.0000   166937    1.01%
     21    23      500.0000   692      495.0000      500.0000   176632    1.01%
     22    24      500.0000   555      495.0000      500.0000   180931    1.01%
     23    25      500.0000   516      495.0000      500.0000   187464    1.01%
Elapsed time = 148.14 sec. (129409.77 ticks, tree = 0.39 MB, solutions = 6)
     24    26      500.0000   513      495.0000      500.0000   189163    1.01%
     25    27      500.0000   609      495.0000      500.0000   192189    1.01%
     26    28      500.0000  1092      495.0000      500.0000   204963    1.01%
     28    30      500.0000   530      495.0000      500.0000   213410    1.01%
     31    33      500.0000   561      495.0000      500.0000   214914    1.01%
     33    35      500.0000   510      495.0000      500.0000   217907    1.01%
     35    37      500.0000   506      495.0000      500.0000   218807    1.01%
     38    40      500.0000   508      495.0000      500.0000   219449    1.01%
     39    41      500.0000   453      495.0000      500.0000   225748    1.01%
     40    42      500.0000   455      495.0000      500.0000   225844    1.01%
Elapsed time = 171.39 sec. (149558.40 ticks, tree = 0.99 MB, solutions = 6)
     42    44      500.0000   449      495.0000      500.0000   228243    1.01%
     45    47      500.0000   457      495.0000      500.0000   228847    1.01%
     46    48      500.0000   439      495.0000      500.0000   235836    1.01%
     47    49      500.0000   460      495.0000      500.0000   241833    1.01%
     49    51      500.0000   414      495.0000      500.0000   242418    1.01%
     50    52      500.0000   387      495.0000      500.0000   244158    1.01%
     52    54      500.0000   395      495.0000      500.0000   245242    1.01%
     54    56      500.0000   390      495.0000      500.0000   248906    1.01%
     57    59      500.0000   367      495.0000      500.0000   250602    1.01%
     60    62      500.0000   364      495.0000      500.0000   251710    1.01%
Elapsed time = 186.25 sec. (162478.89 ticks, tree = 1.88 MB, solutions = 6)
     63    65      500.0000   335      495.0000      500.0000   254957    1.01%
     66    68      500.0000   324      495.0000      500.0000   256249    1.01%
     69    71      500.0000   293      495.0000      500.0000   260368    1.01%
     70    72      500.0000   284      495.0000      500.0000   262108    1.01%
     73    75      500.0000   223      495.0000      500.0000   269125    1.01%
     76    78      500.0000   204      495.0000      500.0000   270667    1.01%
     80    82      500.0000   199      495.0000      500.0000   271483    1.01%
     83    85      500.0000   204      495.0000      500.0000   276612    1.01%
     86    88      500.0000   204      495.0000      500.0000   282755    1.01%
     89    91      500.0000   195      495.0000      500.0000   286740    1.01%
Elapsed time = 232.17 sec. (200950.72 ticks, tree = 3.08 MB, solutions = 6)
     93    95      500.0000   188      495.0000      500.0000   287141    1.01%
     97    99      500.0000   187      495.0000      500.0000   288797    1.01%
    100   102      500.0000   180      495.0000      500.0000   289539    1.01%
    104   106      500.0000   183      495.0000      500.0000   291051    1.01%
    107   109      500.0000   216      495.0000      500.0000   295985    1.01%
    111   113      500.0000   197      495.0000      500.0000   297688    1.01%
    114   116      500.0000   202      495.0000      500.0000   299777    1.01%
    118   120      500.0000   196      495.0000      500.0000   300116    1.01%
    120   122      500.0000   198      495.0000      500.0000   304232    1.01%
    124   126      500.0000   188      495.0000      500.0000   304608    1.01%
Elapsed time = 248.12 sec. (216332.49 ticks, tree = 4.61 MB, solutions = 6)
    128   130      500.0000   194      495.0000      500.0000   306061    1.01%
    131   133      500.0000   184      495.0000      500.0000   308354    1.01%
    134   136      500.0000   157      495.0000      500.0000   314724    1.01%
    137   139      500.0000   189      495.0000      500.0000   326889    1.01%
    140   142      500.0000   187      495.0000      500.0000   330126    1.01%
    142   144      500.0000   196      495.0000      500.0000   337862    1.01%
    145   147      500.0000   177      495.0000      500.0000   340881    1.01%
    148   150      500.0000   155      495.0000      500.0000   343679    1.01%
    150   152      500.0000   158      495.0000      500.0000   347272    1.01%
    153   155      500.0000   148      495.0000      500.0000   351776    1.01%
Elapsed time = 261.25 sec. (227725.44 ticks, tree = 5.84 MB, solutions = 6)
    155   157      500.0000   238      495.0000      500.0000   360479    1.01%
    158   160      500.0000   150      495.0000      500.0000   362458    1.01%
    160   162      500.0000   149      495.0000      500.0000   362716    1.01%
    162   164      500.0000   184      495.0000      500.0000   367034    1.01%
    166   168      500.0000   142      495.0000      500.0000   368187    1.01%
    169   171      500.0000   127      495.0000      500.0000   372363    1.01%
    171   173      500.0000   123      495.0000      500.0000   380870    1.01%
    173   175      500.0000   126      495.0000      500.0000   388342    1.01%
    174   176      500.0000   210      495.0000      500.0000   397750    1.01%
    176   178      500.0000   174      495.0000      500.0000   404240    1.01%
Elapsed time = 274.25 sec. (238319.14 ticks, tree = 6.78 MB, solutions = 6)
    179   181      500.0000   126      495.0000      500.0000   407436    1.01%
    182   184      500.0000   128      495.0000      500.0000   409034    1.01%
    184   186      500.0000   143      495.0000      500.0000   416037    1.01%
    187   189      500.0000   122      495.0000      500.0000   418881    1.01%
    189   191      500.0000   130      495.0000      500.0000   427164    1.01%
    192   194      500.0000   111      495.0000      500.0000   430757    1.01%
    196   198      500.0000   101      495.0000      500.0000   431258    1.01%
    200   202      500.0000    95      495.0000      500.0000   432635    1.01%
    204   206      500.0000    99      495.0000      500.0000   433746    1.01%
    208   210      500.0000    84      495.0000      500.0000   437411    1.01%
Elapsed time = 286.16 sec. (249065.27 ticks, tree = 8.19 MB, solutions = 6)
    212   214      500.0000    87      495.0000      500.0000   442148    1.01%
    216   218      500.0000    93      495.0000      500.0000   446620    1.01%
    220   222      500.0000    95      495.0000      500.0000   450773    1.01%
    224   226      500.0000    97      495.0000      500.0000   453718    1.01%
    227   229      500.0000    87      495.0000      500.0000   455726    1.01%
    230   232      500.0000    77      495.0000      500.0000   459208    1.01%
    234   236      500.0000   107      495.0000      500.0000   463135    1.01%
    237   239      500.0000    68      495.0000      500.0000   467944    1.01%
    240   242      500.0000    60      495.0000      500.0000   471615    1.01%
    252   254      500.0000    68      495.0000      500.0000   490520    1.01%
Elapsed time = 301.72 sec. (262939.10 ticks, tree = 10.06 MB, solutions = 6)
    259   261      500.0000    82      495.0000      500.0000   516654    1.01%
    268   270      500.0000    75      495.0000      500.0000   537205    1.01%
    280   282      500.0000    58      495.0000      500.0000   556773    1.01%
    292   294      500.0000    73      495.0000      500.0000   575790    1.01%
    306   308      500.0000    51      495.0000      500.0000   595093    1.01%
    320   322      500.0000    40      495.0000      500.0000   619419    1.01%
    337   339      500.0000    47      495.0000      500.0000   639221    1.01%
    352   354      500.0000    40      495.0000      500.0000   662218    1.01%
    361   363      500.0000   125      495.0000      500.0000   696697    1.01%
    377   379      500.0000    52      495.0000      500.0000   724484    1.01%
Elapsed time = 350.38 sec. (302567.04 ticks, tree = 15.35 MB, solutions = 6)
    392   394      500.0000    48      495.0000      500.0000   750913    1.01%
    407   409      500.0000    62      495.0000      500.0000   775938    1.01%
    421   423      500.0000    71      495.0000      500.0000   799909    1.01%
    434   436      500.0000    81      495.0000      500.0000   831096    1.01%
    449   449      500.0000   111      495.0000      500.0000   860850    1.01%
    465   465      500.0000    46      495.0000      500.0000   878485    1.01%
    480   476    infeasible            495.0000      500.0000   914595    1.01%
    493   489      500.0000   105      495.0000      500.0000   941695    1.01%
*   495+    1                          500.0000      500.0000             0.00%

Root node processing (before b&c):
  Real time             =   46.90 sec. (40522.63 ticks)
Sequential b&c:
  Real time             =  344.47 sec. (294460.38 ticks)
                          ------------
Total (root+branch&cut) =  391.37 sec. (334983.01 ticks)
Primal:	500
Dual:	500
Status:	Optimal
Time:	391.38
Sequence:
	15
	0
	16
	15
	7
	6
	15
	0
	16
	15
	0
	6
	15
	2
	0
	15
	0
	6
	15
	0
	16
	15
	7
	0
	10
	8
	6
	10
	4
	3
	10
	4
	3
	10
	4
	3
	10
	4
	3
	17
	16
	8
	17
	16
	9
	17
	2
	8
	10
	6
	9
	10
	6
	8
	10
	0
	19
	17
	2
	19
	17
	0
	8
	17
	16
	8
	17
	0
	16
	15
	7
	7
	15
	16
	0
	15
	7
	2
	10
	3
	4
	18
	14
	3
	4
	10
	3
	4
	10
	6
	9
	17
	16
	0
	15
	6
	2
	15
	7
	6
	15
	0
	16
	15
	0
	7
	15
	16
	0
	15
	0
	16
	7
	15
	16
	0
	15
	7
	16
	15
	7
	6
	15
	0
	16
	15
	0
	0
	15
	16
	0
	15
	6
	2
	15
	6
	7
	15
	16
	2
	17
	4
	3
	14
	1
	8
	14
	1
	7
	11
	10
	2
	9
	17
	0
	19
	10
	2
	9
	17
	7
	9
	10
	2
	9
	10
	7
	11
	14
	1
	9
	14
	1
	11
	12
	13
	9
	12
	13
	11
	12
	13
	11
	5
	18
	11
	5
	18
	9
	12
	1
	16
	5
	8
	18
	5
	8
	13
	12
	8
	13
	5
	8
	13
	5
	11
	1
	14
	11
	1
	14
	9
	1
	14
	11
	1
	14
	9
	1
	14
	11
	1
	14
	3
	18
	5
	11
	13
	5
	11
	13
	5
	8
	13
	12
	8
	13
	5
	8
	1
	14
	4
	18
	14
	4
	18
	5
	19
	18
	5
	9
	13
	12
	8
	1
	14
	9
	1
	14
	8
	1
	5
	11
	13
	12
	9
	2
	10
	9
	7
	17
	19
	2
	17
	9
	16
	17
	11
	7
	17
	19
	2
	17
	9
	7
	14
	8
	18
	5
	9
	13
	5
	8
	18
	14
	3
	1
	14
	11
	1
	14
	9
	1
	14
	8
	18
	5
	9
	13
	5
	8
	18
	14
	4
	3
	10
	4
	3
	10
	7
	8
	17
	16
	11
	17
	0
	19
	10
	0
	19
	17
	2
	19
	17
	7
	9
	12
	1
	19
	5
	7
	8
	14
	2
	1
	5
	19
	18
	12
	9
	7
	17
	11
	0
	17
	19
	2
	10
	4
	3
	10
	4
	3
	10
	4
	2
	17
	19
	7
	5
	11
	18
	12
	9
	1
	14
	9
	2
	10
	9
	2
	17
	19
	2
	7
	15
	6
	7
	15
	16
	7
	15
	7
	16
	15
	7
	7
	15
	16
	7
	15
	6
	2
	10
	3
	4
	14
	18
	8
	5
	13
	11
	12
	18
	9
	5
	18
	11
	5
	1
	11
	14
	1
	4
	14
	1
	11
	14
	1
	9
	12
	13
	9
	12
	13
	8
	5
	18
	16
	5
	11
	13
	12
	9
	16
	17
	7
	19
	5
	18
	19
	5
	18
	9
	5
	18
	3
	14
	18
	3
	12
	13
	9
	12
	13
	11
	5
	18
	19
	5
	18
	3
	14
	4
	18
	5
	19
	18
	5
	8
	13
	5
	9
	13
	12
	11
	13
	5
	8
	13
	5
	8
	18
	14
	4
	3
	17
	2
	19
	10
